Figure: small_4
File Number: 4
Nodes: 74
Edges: 602
Max Generations: 1000
Population Size: 100
Mutation Rate: 0.01
Colors Used: 11
Runtime: 0.51

Generation,Average Fitness,Best Fitness
0,59.34,36
1,55.36,36
2,51.98,32
3,49.5,32
4,50.02,32
5,47.24,32
6,47.02,32
7,45.34,26
8,44.8,26
9,45.5,26
10,43.38,22
11,40.28,22
12,38.06,20
13,37.68,20
14,34.84,20
15,34.04,20
16,30.92,16
17,30.24,16
18,28.12,16
19,25.42,14
20,23.96,14
21,22.36,14
22,21.38,14
23,20.5,12
24,19.16,12
25,17.4,10
26,16.42,10
27,16.44,10
28,15.14,10
29,14.24,10
30,13.56,10
31,13.0,10
32,12.82,8
33,12.52,8
34,12.2,8
35,11.9,8
36,11.26,8
37,10.8,6
38,10.66,6
39,10.14,6
40,9.9,4
41,10.16,4
42,9.7,4
43,9.48,4
44,9.14,4
45,8.66,4
46,8.1,4
47,7.86,4
48,7.12,4
49,6.88,4
50,6.66,4
51,7.04,4
52,6.42,2
53,6.18,2
54,6.28,2
55,5.72,2
56,5.52,2
57,5.4,2
58,5.34,2
59,4.8,2
60,4.66,2
61,4.38,2
62,4.04,2
63,3.64,2
64,3.58,2
65,3.76,2
66,4.1,2
67,3.96,2
68,3.78,2
69,3.66,2
70,3.72,2
71,4.34,2
72,3.96,2
73,4.12,2
74,4.28,2
75,3.98,2
76,3.8,2
77,3.4,2
78,3.66,2
79,3.4,2
80,3.42,2
81,3.98,2
82,3.04,2
83,4.12,2
84,3.98,2
85,3.92,2
86,3.4,2
87,3.5,2
88,3.48,2
89,3.5,2
90,3.98,2
91,4.06,2
92,3.52,2
93,3.48,2
94,3.46,2
95,4.04,2
96,3.66,2
97,3.72,2
98,3.82,2
99,4.3,2
100,3.76,2
101,3.54,2
102,3.54,2
103,3.58,2
104,3.78,2
105,3.64,2
106,3.9,2
107,3.72,2
108,3.5,2
109,3.92,2
110,4.34,2
111,3.8,2
112,3.48,2
113,3.9,2
114,3.88,2
115,3.76,2
116,3.76,2
117,3.32,2
118,3.5,2
119,3.84,2
120,4.52,2
121,4.04,2
122,3.98,2
123,3.82,2
124,3.76,2
125,3.46,2
126,3.62,2
127,3.88,2
128,3.58,2
129,3.7,2
130,3.74,2
131,3.9,2
132,3.94,2
133,3.96,2
134,3.36,2
135,3.22,2
136,4.2,2
137,4.12,2
138,3.82,2
139,3.7,2
140,3.82,2
141,3.48,2
142,3.78,2
143,3.82,2
144,3.92,2
145,3.78,2
146,4.12,2
147,4.32,2
148,4.4,2
149,4.38,2
150,4.32,2
151,4.1,2
152,3.6,2
153,3.92,2
154,3.7,2
155,3.7,2
156,4.16,2
157,4.06,2
158,4.42,2
159,3.92,2
160,3.86,2
161,4.0,2
162,4.18,2
163,4.22,2
164,4.02,2
165,3.7,2
166,4.04,2
167,4.08,2
168,4.02,2
169,4.14,2
170,3.78,2
171,3.7,2
172,4.04,2
173,3.82,2
174,3.74,2
175,4.12,2
176,4.02,2
177,3.86,2
178,4.14,2
179,4.16,2
180,3.8,2
181,3.78,2
182,3.94,2
183,3.64,2
184,3.52,2
185,4.04,2
186,3.84,2
187,4.22,2
188,4.02,2
189,3.98,2
190,3.76,2
191,3.64,2
192,3.52,2
193,4.18,2
194,4.08,2
195,3.74,2
196,4.04,2
197,3.96,2
198,4.24,2
199,4.38,2
200,4.12,2
201,4.38,2
202,4.38,2
203,4.16,2
204,3.88,2
205,3.8,2
206,3.78,2
207,3.62,2
208,3.32,2
209,3.5,2
210,3.38,2
211,3.62,2
212,3.8,2
213,3.58,2
214,3.84,2
215,3.56,2
216,3.48,2
217,3.42,2
218,3.84,2
219,3.48,2
220,3.64,2
221,3.54,2
222,3.86,2
223,3.62,2
224,3.94,2
225,4.22,2
226,4.02,2
227,4.22,2
228,4.06,2
229,4.26,2
230,4.12,2
231,4.28,2
232,4.72,2
233,3.78,2
234,4.1,2
235,3.62,2
236,3.52,2
237,3.22,2
238,3.76,2
239,3.84,2
240,3.96,2
241,4.36,2
242,4.32,2
243,4.2,2
244,3.76,2
245,4.74,2
246,4.32,2
247,4.24,2
248,3.68,2
249,3.76,2
250,3.9,2
251,3.7,2
252,3.58,2
253,3.92,2
254,3.4,2
255,3.82,2
256,3.64,2
257,4.06,2
258,4.18,2
259,4.08,2
260,4.28,2
261,3.66,2
262,3.86,2
263,3.88,2
264,3.56,2
265,3.6,2
266,3.76,2
267,4.26,2
268,3.96,2
269,3.76,2
270,4.14,2
271,4.08,2
272,4.64,2
273,4.02,2
274,4.32,2
275,4.18,2
276,3.98,2
277,3.56,2
278,3.7,2
279,3.58,2
280,3.66,2
281,3.9,2
282,3.62,2
283,3.82,2
284,3.78,2
285,3.56,2
286,3.7,2
287,3.56,2
288,3.84,2
289,3.74,2
290,4.12,2
291,3.9,2
292,4.14,2
293,3.88,2
294,3.76,2
295,4.14,2
296,3.94,2
297,3.94,2
298,3.9,2
299,4.04,2
300,3.9,2
301,4.26,2
302,3.88,2
303,3.58,2
304,3.12,2
305,3.64,2
306,3.52,2
307,3.78,2
308,3.94,2
309,4.14,2
310,4.42,2
311,4.28,2
312,4.54,2
313,4.08,2
314,3.7,2
315,3.62,2
316,3.46,2
317,3.68,2
318,3.78,2
319,3.64,2
320,3.8,2
321,3.84,2
322,3.82,2
323,4.1,2
324,3.9,2
325,4.02,2
326,4.02,2
327,3.82,2
328,4.04,2
329,3.56,2
330,3.8,2
331,3.76,2
332,4.0,2
333,3.62,2
334,3.5,2
335,4.3,2
336,4.3,2
337,3.92,2
338,3.78,2
339,3.86,2
340,3.62,2
341,3.94,2
342,4.02,2
343,3.98,2
344,3.98,2
345,4.0,2
346,3.74,2
347,3.82,2
348,3.98,2
349,3.38,2
350,3.56,2
351,3.3,2
352,3.5,2
353,3.78,2
354,3.9,2
355,3.88,2
356,4.04,2
357,4.36,2
358,3.58,2
359,4.14,2
360,4.3,2
361,3.84,2
362,4.36,2
363,4.16,2
364,4.3,2
365,4.28,2
366,4.58,2
367,4.12,2
368,4.28,2
369,3.86,2
370,4.08,2
371,4.14,2
372,3.8,2
373,3.72,2
374,3.86,2
375,3.92,2
376,3.62,2
377,4.08,2
378,4.02,2
379,4.36,2
380,4.3,2
381,3.84,2
382,4.22,2
383,4.2,2
384,4.42,2
385,4.46,2
386,4.98,2
387,4.36,2
388,4.2,2
389,4.62,2
390,4.34,2
391,4.22,2
392,4.42,2
393,3.44,2
394,3.54,2
395,3.44,2
396,3.74,2
397,3.82,2
398,3.68,2
399,4.04,2
400,4.22,2
401,3.68,2
402,4.12,2
403,3.86,2
404,3.9,2
405,4.2,2
406,3.94,2
407,4.18,2
408,4.12,2
409,3.96,2
410,3.8,2
411,3.84,2
412,3.64,2
413,3.96,2
414,3.74,2
415,3.86,2
416,3.52,2
417,3.68,2
418,3.54,2
419,3.88,2
420,3.86,2
421,3.74,2
422,3.96,2
423,3.8,2
424,4.1,2
425,3.72,2
426,3.62,2
427,3.66,2
428,3.6,2
429,3.36,2
430,3.84,2
431,3.84,2
432,3.78,2
433,3.58,2
434,3.86,2
435,4.04,2
436,4.28,2
437,3.38,2
438,3.54,2
439,3.32,2
440,3.4,2
441,3.14,2
442,3.8,2
443,3.62,2
444,3.98,2
445,3.52,2
446,3.34,2
447,4.04,2
448,4.0,2
449,4.22,2
450,3.92,2
451,4.22,2
452,4.8,2
453,4.62,2
454,4.64,2
455,4.68,2
456,5.0,2
457,4.32,2
458,4.42,2
459,3.82,2
460,4.0,2
461,4.24,2
462,3.88,2
463,4.0,2
464,3.86,2
465,3.62,2
466,3.2,2
467,3.26,2
468,3.52,2
469,3.56,2
470,3.94,2
471,4.0,2
472,3.82,2
473,4.06,2
474,4.22,2
475,3.42,2
476,3.48,2
477,3.32,2
478,3.66,2
479,3.66,2
480,4.18,2
481,4.02,2
482,3.42,2
483,3.94,2
484,3.56,2
485,3.72,2
486,4.2,2
487,3.98,2
488,4.32,2
489,4.3,2
490,4.8,2
491,4.2,2
492,3.86,2
493,3.82,2
494,3.92,2
495,3.88,2
496,4.44,2
497,4.42,2
498,3.86,2
499,3.72,2
500,3.62,2
501,3.94,2
502,4.42,2
503,4.48,2
504,4.32,2
505,4.4,2
506,4.3,2
507,4.62,2
508,4.68,2
509,4.32,2
510,4.48,2
511,4.38,2
512,4.14,2
513,4.24,2
514,4.42,2
515,4.24,2
516,4.0,2
517,3.76,2
518,4.08,2
519,3.72,2
520,4.32,2
521,3.72,2
522,3.72,2
523,4.02,2
524,4.12,2
525,4.04,2
526,3.74,2
527,3.52,2
528,3.36,2
529,3.84,2
530,3.88,2
531,3.86,2
532,3.88,2
533,3.8,2
534,4.06,2
535,3.84,2
536,3.78,2
537,3.82,2
538,3.68,2
539,3.84,2
540,3.88,2
541,4.06,2
542,3.64,2
543,4.08,2
544,4.06,2
545,4.26,2
546,4.2,2
547,4.2,2
548,4.2,2
549,4.36,2
550,4.12,2
551,4.44,2
552,4.3,2
553,4.04,2
554,4.08,2
555,3.5,2
556,3.88,2
557,3.84,2
558,3.94,2
559,4.16,2
560,4.06,2
561,4.14,2
562,4.28,2
563,4.04,2
564,4.68,2
565,4.48,2
566,3.88,2
567,3.64,2
568,3.96,2
569,3.44,2
570,3.44,2
571,3.9,2
572,3.68,2
573,3.72,2
574,3.8,2
575,3.92,2
576,3.68,2
577,3.62,2
578,3.46,2
579,3.74,2
580,3.72,2
581,3.56,2
582,3.42,2
583,3.6,2
584,4.08,2
585,4.1,2
586,3.66,2
587,3.88,2
588,3.9,2
589,4.38,2
590,3.86,2
591,3.98,2
592,3.98,2
593,4.18,2
594,3.94,2
595,3.94,2
596,4.06,2
597,4.04,2
598,3.9,2
599,3.8,2
600,4.0,2
601,3.96,2
602,3.76,2
603,3.64,2
604,4.06,2
605,4.06,2
606,3.8,2
607,3.96,2
608,3.92,2
609,4.16,2
610,3.94,2
611,4.12,2
612,4.12,2
613,4.02,2
614,3.82,2
615,3.86,2
616,4.12,2
617,4.46,2
618,3.92,2
619,4.08,2
620,3.72,2
621,3.96,2
622,3.7,2
623,3.56,2
624,3.84,2
625,3.68,2
626,3.82,2
627,4.34,2
628,4.36,2
629,3.92,2
630,4.18,2
631,3.86,2
632,3.48,2
633,3.36,2
634,3.26,2
635,3.52,2
636,3.56,2
637,3.94,2
638,4.62,2
639,4.62,2
640,4.58,2
641,4.22,2
642,4.38,2
643,4.22,2
644,4.18,2
645,4.94,2
646,4.5,2
647,4.4,2
648,4.16,2
649,3.92,2
650,4.04,2
651,3.9,2
652,3.94,2
653,3.86,2
654,4.22,2
655,4.02,2
656,4.26,2
657,4.02,2
658,3.78,2
659,4.04,2
660,4.06,2
661,4.0,2
662,4.62,2
663,4.78,2
664,4.06,2
665,3.98,2
666,4.02,2
667,4.18,2
668,3.76,2
669,3.74,2
670,3.76,2
671,4.28,2
672,4.26,2
673,3.68,2
674,4.0,2
675,3.86,2
676,4.12,2
677,4.46,2
678,4.78,2
679,4.66,2
680,4.12,2
681,4.24,2
682,4.44,2
683,4.2,2
684,4.72,2
685,4.22,2
686,3.64,2
687,4.02,2
688,3.8,2
689,4.4,2
690,4.02,2
691,4.06,2
692,4.66,2
693,4.04,2
694,3.94,2
695,3.52,2
696,3.66,2
697,3.94,2
698,3.34,2
699,3.54,2
700,3.82,2
701,4.08,2
702,4.44,2
703,3.88,2
704,4.2,2
705,3.96,2
706,3.9,2
707,4.46,2
708,4.7,2
709,4.64,2
710,4.16,2
711,3.96,2
712,3.72,2
713,4.06,2
714,4.06,2
715,3.88,2
716,4.1,2
717,3.86,2
718,4.02,2
719,3.56,2
720,3.88,2
721,3.84,2
722,4.1,2
723,4.0,2
724,3.8,2
725,4.26,2
726,4.06,2
727,4.22,2
728,4.1,2
729,4.12,2
730,3.76,2
731,4.04,2
732,4.0,2
733,3.54,2
734,4.1,2
735,3.96,2
736,3.98,2
737,4.1,2
738,4.16,2
739,3.78,2
740,3.66,2
741,3.46,2
742,3.9,2
743,3.86,2
744,4.14,2
745,3.98,2
746,3.66,2
747,3.26,2
748,3.98,2
749,3.56,2
750,4.18,2
751,3.88,2
752,4.44,2
753,4.18,2
754,4.36,2
755,4.5,2
756,4.5,2
757,4.64,2
758,4.8,2
759,4.56,2
760,4.48,2
761,4.68,2
762,4.18,2
763,4.04,2
764,4.04,2
765,3.54,2
766,3.54,2
767,3.34,2
768,4.22,2
769,3.98,2
770,4.26,2
771,4.1,2
772,4.08,2
773,4.18,2
774,4.18,2
775,4.54,2
776,4.4,2
777,4.06,2
778,3.94,2
779,3.96,2
780,3.9,2
781,3.88,2
782,3.68,2
783,3.64,2
784,3.98,2
785,4.12,2
786,4.24,2
787,4.34,2
788,4.2,2
789,4.22,2
790,3.98,2
791,4.28,2
792,4.48,2
793,4.54,2
794,4.18,2
795,4.7,2
796,4.66,2
797,4.66,2
798,4.32,2
799,3.74,2
800,3.76,2
801,3.38,2
802,3.48,2
803,3.6,2
804,3.68,2
805,3.8,2
806,3.54,2
807,3.58,2
808,3.56,2
809,3.5,2
810,3.8,2
811,3.84,2
812,4.02,2
813,3.96,2
814,4.06,2
815,4.12,2
816,3.94,2
817,4.02,2
818,3.82,2
819,4.18,2
820,3.68,2
821,3.42,2
822,3.26,2
823,3.22,2
824,3.64,2
825,3.36,2
826,3.5,2
827,3.26,2
828,3.9,2
829,4.04,2
830,4.12,2
831,4.14,2
832,4.4,2
833,4.42,2
834,4.2,2
835,4.48,2
836,4.06,2
837,4.74,2
838,4.12,2
839,4.34,2
840,4.34,2
841,4.12,2
842,4.06,2
843,3.78,2
844,4.44,2
845,4.04,2
846,3.52,2
847,3.42,2
848,3.66,2
849,4.0,2
850,4.2,2
851,4.28,2
852,3.72,2
853,3.72,2
854,3.54,2
855,4.18,2
856,4.32,2
857,4.3,2
858,4.18,2
859,3.96,2
860,4.0,2
861,4.48,2
862,4.36,2
863,3.98,2
864,3.32,2
865,3.76,2
866,3.54,2
867,3.48,2
868,3.38,2
869,3.68,2
870,3.84,2
871,3.58,2
872,3.6,2
873,3.84,2
874,3.94,2
875,3.62,2
876,4.1,2
877,3.78,2
878,4.26,2
879,4.2,2
880,3.84,2
881,3.62,2
882,3.64,2
883,3.96,2
884,4.16,2
885,3.86,2
886,3.92,2
887,4.02,2
888,4.38,2
889,4.38,2
890,3.76,2
891,4.2,2
892,4.56,2
893,4.72,2
894,4.54,2
895,4.48,2
896,4.32,2
897,4.18,2
898,4.08,2
899,3.7,2
900,4.06,2
901,3.98,2
902,4.32,2
903,4.06,2
904,3.88,2
905,4.24,2
906,3.9,2
907,3.7,2
908,4.08,2
909,4.36,2
910,4.34,2
911,4.68,2
912,4.36,2
913,4.3,2
914,3.82,2
915,3.88,2
916,4.04,2
917,3.9,2
918,3.72,2
919,3.7,2
920,3.56,2
921,3.8,2
922,3.94,2
923,3.98,2
924,3.56,2
925,4.1,2
926,4.08,2
927,4.36,2
928,4.22,2
929,3.52,2
930,3.9,2
931,3.48,2
932,3.7,2
933,3.5,2
934,3.9,2
935,4.38,2
936,4.16,2
937,4.5,2
938,4.54,2
939,4.68,2
940,4.42,2
941,4.24,2
942,4.04,2
943,4.04,2
944,3.76,2
945,3.92,2
946,3.76,2
947,3.72,2
948,3.76,2
949,3.6,2
950,3.96,2
951,3.98,2
952,3.76,2
953,3.88,2
954,3.7,2
955,3.4,2
956,3.8,2
957,4.0,2
958,3.82,2
959,4.02,2
960,4.04,2
961,3.58,2
962,4.12,2
963,3.48,2
964,3.96,2
965,4.2,2
966,4.2,2
967,4.12,2
968,4.06,2
969,3.76,2
970,4.12,2
971,3.92,2
972,3.9,2
973,4.2,2
974,4.06,2
975,3.62,2
976,3.76,2
977,3.42,2
978,3.74,2
979,3.7,2
980,4.16,2
981,4.44,2
982,4.02,2
983,3.96,2
984,3.82,2
985,4.24,2
986,3.82,2
987,3.56,2
988,3.78,2
989,3.8,2
990,4.38,2
991,3.98,2
992,4.08,2
993,4.1,2
994,4.52,2
995,4.1,2
996,4.46,2
997,4.44,2
998,4.32,2
999,4.04,2
